
Gurobi 9.0.2 (win64) logging started Sun Dec 27 06:24:17 2020

Changed value of parameter logfile to result\SunCable-20201227T0415\scenario_2030_p10_cab0.log
   Prev:   Default: 
Gurobi Optimizer version 9.0.2 build v9.0.2rc0 (win64)
Optimize a model with 1243974 rows, 762167 columns and 3491689 nonzeros
Model fingerprint: 0xca9441f8
Coefficient statistics:
  Matrix range     [1e-07, 3e+05]
  Objective range  [1e+00, 1e+00]
  Bounds range     [0e+00, 0e+00]
  RHS range        [2e-05, 3e+08]
Warning: Model contains large matrix coefficient range
         Consider reformulating model or setting NumericFocus parameter
         to avoid numerical issues.

Concurrent LP optimizer: primal simplex, dual simplex, and barrier
Showing barrier log only...

Presolve removed 1077757 rows and 595936 columns
Presolve time: 2.70s
Presolved: 166217 rows, 280097 columns, 634800 nonzeros

Ordering time: 0.07s

Barrier statistics:
 Dense cols : 4
 AA' NZ     : 5.743e+05
 Factor NZ  : 2.973e+06 (roughly 200 MBytes of memory)
 Factor Ops : 6.580e+07 (less than 1 second per iteration)
 Threads    : 30

                  Objective                Residual
Iter       Primal          Dual         Primal    Dual     Compl     Time
   0  -2.03238804e+16 -1.07293747e+15  5.93e+06 2.66e+04  2.44e+12     3s
   1  -3.48405430e+15 -1.08556369e+15  1.01e+06 4.50e+06  5.67e+11     3s
   2  -1.22122402e+15 -1.02025328e+15  3.55e+05 1.27e+06  1.92e+11     4s
   3  -2.69554557e+14 -8.45435195e+14  7.90e+04 1.78e+05  4.08e+10     4s
   4  -8.26208374e+13 -5.48668038e+14  2.30e+04 5.37e+04  1.24e+10     4s
   5  -2.84047597e+13 -3.89263479e+14  7.50e+03 2.82e+04  4.86e+09     5s
   6  -1.09401054e+13 -2.72352017e+14  3.05e+03 1.41e+04  2.27e+09     5s
   7  -3.50829841e+12 -1.24116293e+14  1.03e+03 2.03e+03  6.03e+08     5s
   8   1.34449229e+11 -3.55709251e+13  2.20e+01 1.33e+02  7.38e+07     5s
   9   1.84919462e+11 -1.19834809e+12  4.88e-02 3.69e+00  2.66e+06     5s
  10   1.03651217e+11 -5.33014302e+11  1.72e-02 1.38e+00  1.19e+06     6s
  11   4.05390321e+10 -2.17142440e+11  3.62e-03 3.46e-01  4.70e+05     6s
  12   1.40622610e+10 -6.48769822e+10  7.22e-04 2.98e-08  1.42e+05     6s
  13   1.07142358e+10 -1.51361865e+10  4.55e-04 2.24e-08  4.63e+04     6s
  14   1.05870874e+10 -9.89261798e+09  4.26e-04 2.24e-08  3.67e+04     7s
  15   6.86003583e+09 -1.15636535e+09  1.40e-04 1.49e-08  1.43e+04     7s
  16   5.93890305e+09  2.14043401e+09  7.58e-05 1.12e-08  6.79e+03     7s
  17   5.52641798e+09  3.12348964e+09  4.69e-05 7.45e-09  4.29e+03     7s
  18   5.25436398e+09  4.44343275e+09  2.67e-05 4.66e-09  1.45e+03     8s
  19   5.09804902e+09  4.56771591e+09  1.53e-05 3.73e-09  9.47e+02     8s
  20   5.02323827e+09  4.73606443e+09  9.45e-06 2.79e-09  5.13e+02     8s
  21   5.01081525e+09  4.78075196e+09  8.42e-06 1.86e-09  4.11e+02     8s
  22   4.99538172e+09  4.82829100e+09  7.09e-06 1.86e-09  2.98e+02     9s
  23   4.97150859e+09  4.84752461e+09  5.11e-06 1.86e-09  2.21e+02     9s
  24   4.95917169e+09  4.86545534e+09  4.07e-06 2.79e-09  1.67e+02     9s
  25   4.94778989e+09  4.87940520e+09  3.02e-06 1.86e-09  1.22e+02    10s
  26   4.94003834e+09  4.88885578e+09  2.34e-06 1.86e-09  9.14e+01    10s
  27   4.93388490e+09  4.89899889e+09  1.76e-06 1.86e-09  6.23e+01    10s
  28   4.92895026e+09  4.90279694e+09  1.24e-06 1.86e-09  4.67e+01    11s
  29   4.92444510e+09  4.90729797e+09  7.74e-07 1.86e-09  3.06e+01    11s
  30   4.92268513e+09  4.91047132e+09  5.85e-07 1.86e-09  2.18e+01    11s
  31   4.92109921e+09  4.91304841e+09  4.01e-07 1.86e-09  1.44e+01    12s
  32   4.91984591e+09  4.91436569e+09  2.62e-07 1.86e-09  9.79e+00    12s
  33   4.91892937e+09  4.91554287e+09  1.65e-07 1.86e-09  6.05e+00    12s
  34   4.91856816e+09  4.91628455e+09  1.21e-07 1.86e-09  4.08e+00    12s
  35   4.91810624e+09  4.91684216e+09  6.58e-08 1.86e-09  2.26e+00    13s
  36   4.91781750e+09  4.91720903e+09  2.34e-07 1.86e-09  1.09e+00    13s
  37   4.91767186e+09  4.91737619e+09  2.15e-07 1.86e-09  5.28e-01    13s
  38   4.91761021e+09  4.91748696e+09  3.03e-07 1.86e-09  2.20e-01    13s
  39   4.91756853e+09  4.91753958e+09  2.31e-07 2.79e-09  5.17e-02    13s
  40   4.91756013e+09  4.91754809e+09  1.05e-07 1.86e-09  2.15e-02    14s
  41   4.91755334e+09  4.91755233e+09  4.94e-09 2.79e-09  1.81e-03    14s
  42   4.91755294e+09  4.91755281e+09  3.71e-09 2.79e-09  2.25e-04    14s
  43   4.91755293e+09  4.91755293e+09  3.19e-08 2.79e-09  1.20e-07    15s
  44   4.91755293e+09  4.91755293e+09  2.73e-12 2.79e-09  1.90e-12    15s

Barrier solved model in 44 iterations and 15.04 seconds
Optimal objective 4.91755293e+09

Crossover log...

   19168 DPushes remaining with DInf 0.0000000e+00                15s
       0 DPushes remaining with DInf 0.0000000e+00                16s
Warning: Markowitz tolerance tightened to 0.5

   79163 PPushes remaining with PInf 0.0000000e+00                16s
     422 PPushes remaining with PInf 0.0000000e+00                20s
       0 PPushes remaining with PInf 0.0000000e+00                20s

  Push phase complete: Pinf 0.0000000e+00, Dinf 5.9816395e-09     20s

Iteration    Objective       Primal Inf.    Dual Inf.      Time
   80658    4.9175529e+09   0.000000e+00   0.000000e+00     22s

Solved with barrier
Solved in 80658 iterations and 21.91 seconds
Optimal objective  4.917552933e+09
Warning: unscaled primal violation = 0.000870345 and residual = 0.000870345
